;  time  = 600
;  terms = 163
;  score = 0.348
(set-logic QF_FP)
(declare-const x0 (_ FloatingPoint 8 24))
(declare-const x1 (_ FloatingPoint 8 24))
(declare-const x2 (_ FloatingPoint 8 24))
(declare-const x3 (_ FloatingPoint 8 24))
(declare-const x4 (_ FloatingPoint 8 24))
(declare-const x5 (_ FloatingPoint 8 24))
(declare-const x6 (_ FloatingPoint 8 24))
(declare-const x7 (_ FloatingPoint 8 24))
(declare-const x8 (_ FloatingPoint 8 24))
(declare-const x9 (_ FloatingPoint 8 24))
(declare-const x10 (_ FloatingPoint 8 24))
(declare-const x11 (_ FloatingPoint 8 24))
(declare-const x12 (_ FloatingPoint 8 24))
(declare-const x13 (_ FloatingPoint 8 24))
(declare-const x14 (_ FloatingPoint 8 24))
(assert (fp.gt (fp.mul RNE (fp.sub RNE (fp.sub RNE (fp.sub RNE (fp.sub RNE x0 (fp.abs (fp.abs x1))) (fp.sub RNE (fp.abs (fp.neg (fp.abs (fp.sub RNE x10 x2)))) (fp.neg x11))) (fp.mul RNE (fp.neg (fp.add RNE x10 (fp.mul RNE (fp.sub RNE (fp.mul RNE x2 x9) (fp.mul RNE x9 x10)) x6))) (fp.abs (fp.abs (fp.add RNE (fp.mul RNE (fp.neg x7) (fp.mul RNE x2 x8)) (fp.neg (fp.mul RNE x4 x6))))))) x0) (fp.mul RNE (fp.add RNE (fp.add RNE x14 (fp.neg (fp.add RNE (fp.mul RNE (fp.mul RNE (fp.mul RNE x9 x6) (fp.add RNE x14 x11)) (fp.mul RNE (fp.add RNE x11 x14) (fp.add RNE x4 x8))) x7))) (fp.sub RNE (fp.sub RNE (fp.add RNE (fp.mul RNE (fp.sub RNE (fp.mul RNE x8 x0) x6) (fp.abs (fp.neg x9))) (fp.sub RNE x13 (fp.neg (fp.mul RNE x12 x2)))) x9) x12)) (fp.add RNE x13 (fp.mul RNE x8 (fp.add RNE (fp.add RNE (fp.add RNE (fp.abs (fp.mul RNE x3 x13)) (fp.neg (fp.neg x7))) (fp.abs (fp.mul RNE (fp.abs x13) (fp.abs x8)))) (fp.neg (fp.add RNE (fp.add RNE (fp.neg x9) (fp.sub RNE x5 x1)) (fp.sub RNE (fp.neg x3) x6)))))))) (fp.sub RNE (fp.mul RNE (fp.sub RNE (fp.add RNE x7 (fp.abs (fp.add RNE (fp.sub RNE x2 (fp.sub RNE (fp.mul RNE x10 x12) (fp.mul RNE x11 x9))) x6))) (fp.neg (fp.mul RNE x0 (fp.add RNE (fp.abs (fp.neg (fp.add RNE x5 x4))) (fp.neg x5))))) (fp.mul RNE (fp.neg (fp.neg (fp.neg (fp.mul RNE (fp.neg (fp.sub RNE x12 x3)) (fp.neg (fp.abs x6)))))) (fp.neg x2))) x8)))
(check-sat)